p tw 24 162
0 1
0 2
0 3
0 4
0 7
0 12
0 19
0 16
0 20
0 10
0 13
0 6
0 18
0 14
1 2
1 20
1 6
1 9
1 15
1 19
1 7
1 10
1 21
1 3
1 17
1 5
1 14
1 11
2 6
2 19
2 16
2 22
2 10
2 8
3 4
3 5
3 6
3 7
3 10
3 11
3 12
3 17
3 15
3 22
3 21
3 19
3 13
4 8
4 15
4 13
4 19
4 6
4 16
4 10
4 21
4 22
4 17
4 12
4 14
4 7
5 6
5 11
5 12
5 7
5 14
5 18
5 16
5 19
5 22
5 8
5 23
5 9
5 13
5 17
6 7
6 8
6 9
6 14
6 20
6 19
6 16
6 21
7 8
7 11
7 12
7 9
7 16
7 17
7 18
7 14
7 22
7 19
7 13
8 15
8 17
8 23
8 12
8 13
8 22
8 21
9 10
9 11
9 12
9 16
9 14
9 18
9 20
9 15
9 21
9 23
9 13
9 22
10 11
10 14
10 13
10 21
10 17
10 16
10 18
10 19
11 12
11 18
11 22
11 16
11 23
11 13
11 21
11 20
11 19
12 19
12 14
12 21
12 13
12 15
12 16
13 14
13 15
13 19
13 16
13 18
14 15
14 21
14 20
14 17
14 19
15 19
15 16
15 17
15 21
15 22
16 20
16 23
16 19
16 22
17 18
17 21
17 23
18 20
18 22
18 19
21 23
21 22
